#Setting up the system
dimension 3
units metal
atom_style  atomic
boundary p p f

#Setting up the simulation cell
lattice fcc 4.079
region box block 0 30 0 30 0 120
create_box 8 box

# Creating the fixed region
# These atoms will be "frozen" to simulate bulk 
region fixed block 0 30 0 30 0 1 side in
create_atoms 1 region fixed
group fixed region fixed

# Atoms in the thermal region created below will be thermalized at 300K and kept at contant T by a Berendsen 
# thermostat
region thermal block 0 30 0 30 1.1 5
create_atoms 2 region thermal
group thermal region thermal

# Atoms in the free region created below will have no constraint
region free block 0 30 0 30 5.1 10
create_atoms 3 region free

group free region free

# Setting up different region where nanoparticles will be inserted
region nano1 block 0 30 0 30 11 35
region nano2 block 0 30 0 30 11 55
region nano3 block 0 30 0 30 11 80
region nano4 block 0 30 0 30 80 120

# Defining interaction potential
pair_style eam
pair_coeff * * ../test/Au.eam

# Initializing velocities for atoms in the thermal region
velocity thermal create 300. 123789 rot yes dist gaussian
velocity free create 300. 123789 rot yes dist gaussian

# Coupling atoms in thermal region to a thermostat
fix th thermal temp/berendsen 300. 300. 100.

# Fixing positions of atoms in fixed region
fix mv fixed move linear 0 0 0


# Reading molecule files for the nps and assing them to a "molecule"
molecule molec ../test/molecules/Au531MDh462.molecule.therm.molecule
molecule nano2 ../test/molecules/Au236spmdh.molecule.therm.molecule
molecule nano3 ../test/molecules/Au976To.molecule.therm.molecule
molecule nano4 ../test/molecules/Au92moreIhlike.molecule.therm.molecule
lattice	diamond 60

# Inserting the nanoparticles
create_atoms 3 random 15 123875 nano1 overlap 0.02 maxtry 150 mol molec 123789 
create_atoms 4 random 12 145983 nano1 overlap 0.02 maxtry 15000 mol nano2 197345
create_atoms 5 random 11 145993 nano1 overlap 0.01 maxtry 10550 mol nano3 197345
create_atoms 6 random 5 145993 nano1 overlap 0.007 maxtry 10550 mol nano4 197345

write_data lattice.data
group nano type 4 5 6 7 

velocity nano set 0 0 -0.005

compute nanocom nano com 
compute ttherm thermal temp
compute tfree free temp

timestep 0.01

neigh_modify exclude group fixed fixed 

thermo 100
thermo_style custom step temp pe ke etotal vol c_nanocom[3] c_ttherm c_tfree

dump        mydmp all custom 1000 dump/dump.singledep x y z vx vy vz type
dump        nanodmp nano custom 100 dump/dump.onlynano x y z vx vy vz type

fix	        1 free nve
fix	        2 nano nve
fix         3 thermal nvt temp 300. 300. 100.
run         25000
write_data  lattice.firstdep
undump      mydmp
undump      nanodmp

 reset_timestep 0
 unfix       mv
 timestep    0.001
 fix         mv fixed move linear 0 0 0

 dump        mydmp all custom 500 dump/dump.equil.film x y z vx vy vz type
 dump        mydmp_light nano custom 100 dump/dump.equil.nps x y z

 run         50000 
 write_data  lattice.equil 



