dimension 3
units metal
atom_style  atomic
boundary p p f
lattice fcc 4.079

region box block 0 30 0 30 0 120
create_box 8 box
region fixed block 0 30 0 30 0 1 side in
create_atoms 1 region fixed
group fixed region fixed

region thermal block 0 30 0 30 1.1 5
create_atoms 2 region thermal
group thermal region thermal

region free block 0 30 0 30 5.1 10
create_atoms 3 region free

group free region free

region nano1 block 0 30 0 30 11 35
region nano2 block 0 30 0 30 11 50
region nano3 block 0 30 0 30 15 80
region nano4 block 0 30 0 30 80 120


pair_style eam
pair_coeff * * ../test/Au.eam
velocity thermal create 300. 123789 rot yes dist gaussian

fix th thermal temp/berendsen 300. 300. 10.
fix mv fixed move linear 0 0 0



molecule molec ../test/molecules/Au520MDh3-4-3.molecule.therm.molecule
molecule nano2 ../test/molecules/Au1228mDh.molecule.therm.molecule
molecule nano3 ../test/molecules/Au887MDh453.molecule.therm.molecule
molecule nano4 ../test/molecules/Au147Ih.molecule.therm.molecule
lattice	diamond 60

create_atoms 3 random 15 123875 nano2 overlap 0.02 maxtry 150 mol molec 123789 
create_atoms 4 random 25 145983 nano2 overlap 0.02 maxtry 15000 mol nano2 197345
create_atoms 5 random 10 145993 nano2 overlap 0.01 maxtry 10550 mol nano3 197345
create_atoms 6 random 10 145993 nano2 overlap 0.01 maxtry 10550 mol nano4 197345

write_data lattice.data
group nano type 4 5 6 7 

velocity nano set 0 0 -0.005

compute nanocom nano com 
compute ttherm thermal temp
compute tfree free temp

timestep 0.01

thermo 100
thermo_style custom step temp pe ke etotal vol c_nanocom[3] c_ttherm c_tfree

dump        mydmp all custom 100 dump/dump.singledep x y z vx vy vz type

fix	        1 all nve
run         50000
write_data  lattice.firstdep
undump      mydmp

reset_timestep 

timestep    0.001
dump        mydmp all custom 500 dump/dump.equil.film x y z vx vy vz type
run         100000 
write_data  lattice.equil 