read_restart        equil.restart
reset_timestep      0

pair_style          eam/opt
pair_coeff          * * ../test/Au.eam

group               nano type 4 5 6 7 
group               fixed type 1
group               thermal type 2
group               free type 3

delete_atoms group free
delete_atoms group thermal
delete_atoms group fixed


variable            topfilm equal bound(nano,zmax)
lattice             fcc 4.079 

region              film block INF INF INF INF 11.25 ${topfilm}
group               film region film

region              fixfilm block INF INF INF INF 10.25 11.25
group               fixfilm region fixfilm

region              hot block INF 5 INF INF 10.25 ${topfilm}
group               hot region hot

region              cold block 25.1 INF INF INF 10.25 ${topfilm}
group               cold region cold

region              mid block 5.1 25 INF INF 10.25 ${topfilm} 
group               mid region mid

fix                 1 film nve
fix                 mvfilm fixfilm move linear NULL NULL 0


compute             nke nano ke/atom 
variable            temp atom (c_nke)/1.5*1.6/1.3806503*10000
variable            thick atom bound(nano,zmax)-bound(nano,zmin)
variable            lownano atom bound(nano,zmin)

variable            nevery index 1
variable            nrep index 500
variable            nfreq index 5000

compute             midtemp mid temp
compute             hotemp hot temp
compute             cotemp cold temp

#compute             cc1 film chunk/atom bin/2d x lower 0.02 y lower 0.02 units reduced
#fix                 33 all ave/chunk 1 1000 2000 cc1 v_temp file all200.profile

variable            nstep equal 25000 
variable            halfstep equal 12500
variable            chunkstep equal 0.05
compute             cc2 film chunk/atom bin/3d x lower ${chunkstep} y lower ${chunkstep} z lower ${chunkstep} units reduced
fix                 44 film ave/chunk ${nevery} ${nrep} ${nfreq} cc2 density/number norm sample file density_3d.profile

compute             cc3 film chunk/atom bin/3d x lower ${chunkstep} y lower ${chunkstep} z lower ${chunkstep} units reduced
fix                 55 film ave/chunk ${nevery} ${nrep} ${nfreq} cc3 v_temp file temp_3d.profile


fix                 th thermal nvt temp 300. 300. 100.
fix                 mv fixed move linear 0 0 0

fix                 11 hot langevin 800 800 0.01 699483 tally yes
fix                 22 cold langevin 400 400 0.01 810765 tally yes

thermo              100
thermo_style        custom step ke pe etotal temp c_midtemp c_cotemp c_hotemp

dump                5 all custom 1000 cfg/thermalcfg3.cfg id type x y z vx vy vz


run                 ${nstep}




